1594
88 73 93 38 10 80 13 82 60 68 25 84 47 1 62 43 6 49 31 27 96 7 66 20 12 42 16 71 24 3 97 86 56 37 4 45 2 76 11 83 9 65 17 64 41 32 92 61 15 51 18 39 48 5 58 90 72 26 69 67 99 77 30 87 85 34 28 44 33 94 54 46 78 98 50 36 35 22 95 79 19 40 89 70 14 21 81 57 59 53 23 63 29 91 55 8 74 52 75 
